
Gurobi 9.0.3 (win64, Java) logging started Tue Feb 23 17:40:48 2021


--------------------------------------------
Warning: your license will expire in 9 days
--------------------------------------------

Academic license - for non-commercial use only

Gurobi 9.0.3 (win64, Java) logging started Tue Feb 23 17:41:09 2021


--------------------------------------------
Warning: your license will expire in 9 days
--------------------------------------------

Academic license - for non-commercial use only

Gurobi 9.0.3 (win64, Java) logging started Tue Feb 23 17:41:55 2021


--------------------------------------------
Warning: your license will expire in 9 days
--------------------------------------------

Academic license - for non-commercial use only

Gurobi 9.0.3 (win64, Java) logging started Tue Feb 23 17:42:23 2021


--------------------------------------------
Warning: your license will expire in 9 days
--------------------------------------------

Academic license - for non-commercial use only

Gurobi 9.0.3 (win64, Java) logging started Tue Feb 23 17:43:16 2021


--------------------------------------------
Warning: your license will expire in 9 days
--------------------------------------------

Academic license - for non-commercial use only
